50 8
267 620
506 722
631 516
375 806
108 919
91 646
331 450
512 374
383 713
841 791
685 801
799 904
413 269
297 677
415 631
64 348
462 672
814 280
710 801
80 387
781 850
784 491
343 99
238 219
399 618
87 924
486 322
86 549
37 537
181 804
130 514
505 441
62 908
820 759
801 506
935 337
417 226
65 577
632 757
413 845
350 517
41 632
409 133
191 455
150 411
788 141
705 924
728 767
160 499
741 954
